instances/in_30_15_8_2.dzn
n = 30;
k = 15;
h = 8;
tiles = array2d(1..n, 1..2,
[ 9,1
, 4,12
, 6,4
, 6,13
, 10,7
, 11,7
, 6,10
, 9,15
, 5,11
, 2,6
, 5,6
, 2,9
, 3,11
, 13,12
, 7,4
, 5,9
, 13,5
, 13,10
, 8,1
, 3,9
, 9,4
, 9,13
, 13,12
, 14,10
, 14,8
, 2,15
, 15,10
, 15,2
, 14,5
, 2,2
]);