instances/in_30_15_8_2.lp
#const n = 30.
#const k = 15.
#const h = 8.
tile(1,9,1).
tile(2,4,12).
tile(3,6,4).
tile(4,6,13).
tile(5,10,7).
tile(6,11,7).
tile(7,6,10).
tile(8,9,15).
tile(9,5,11).
tile(10,2,6).
tile(11,5,6).
tile(12,2,9).
tile(13,3,11).
tile(14,13,12).
tile(15,7,4).
tile(16,5,9).
tile(17,13,5).
tile(18,13,10).
tile(19,8,1).
tile(20,3,9).
tile(21,9,4).
tile(22,9,13).
tile(23,13,12).
tile(24,14,10).
tile(25,14,8).
tile(26,2,15).
tile(27,15,10).
tile(28,15,2).
tile(29,14,5).
tile(30,2,2).
